3 
4  42 
5  03 23 37 44 52 59 
6  07 15 21 30 37 45 51 57 
7  05 12 20 27 35 42 50 57 
8  05 12 20 27 35 42 50 57 
9  05 12 20 27 35 42 50 57 
10  12 27 42 57 
11  12 27 42 57 
12  12 27 42 57 
13  12 27 42 50 57 
14  05 12 20 27 35 42 50 56 
15  05 12 20 27 35 42 50 56 
16  05 12 20 27 35 42 50 57 
17  05 12 20 27 35 42 50 57 
18  05 12 20 28 35 42 50 57 
19  05 12 20 27 35 42 50 57 
20  07 22 37 52 
21  07 22 37 52 
22  04 17 32 47 
23 
